Version identifier: 22.1.1.0 | 2022-11-28 | 9160aff4d
CPXPARAM_ClockType                               1
CPXPARAM_Read_DataCheck                          1
CPXPARAM_Threads                                 1
CPXPARAM_TimeLimit                               7200
CPXPARAM_MIP_Tolerances_AbsMIPGap                0
CPXPARAM_MIP_Tolerances_MIPGap                   0
CPXPARAM_MIP_Tolerances_Integrality              0
Tried aggregator 2 times.
MIP Presolve eliminated 27875 rows and 30 columns.
MIP Presolve modified 37106 coefficients.
Aggregator did 18552 substitutions.
Reduced MIP has 166816 rows, 92760 columns, and 461896 nonzeros.
Reduced MIP has 92760 binaries, 0 generals, 0 SOSs, and 0 indicators.
Presolve time = 1.20 sec. (576.33 ticks)
Found incumbent of value -533766.000000 after 2.31 sec. (1104.05 ticks)
Probing time = 0.12 sec. (25.10 ticks)
Tried aggregator 1 time.
Detecting symmetries...
Reduced MIP has 166816 rows, 92760 columns, and 461896 nonzeros.
Reduced MIP has 92760 binaries, 0 generals, 0 SOSs, and 0 indicators.
Presolve time = 1.24 sec. (457.05 ticks)
Probing time = 0.11 sec. (23.79 ticks)
Clique table members: 157927.
MIP emphasis: balance optimality and feasibility.
MIP search method: dynamic search.
Parallel mode: none, using 1 thread.
Root relaxation solution time = 7195.97 sec. (2539798.90 ticks)

        Nodes                                         Cuts/
   Node  Left     Objective  IInf  Best Integer    Best Bound    ItCnt     Gap

*     0+    0                      -533766.0000   301470.0000           156.48%
      0     0   1.00000e+37     0  -533766.0000   301470.0000   552185  156.48%

Root node processing (before b&c):
  Real time             = 7200.22 sec. (2541599.89 ticks)
Sequential b&c:
  Real time             =    0.00 sec. (0.00 ticks)
                          ------------
Total (root+branch&cut) = 7200.22 sec. (2541599.89 ticks)
Solution is feasible.

---------------------
@@@ MIP_time_limit_feasible
>>> Benchmark mc2024_track1_160.cnf k 10 OPT -533766 TimeCost 7603.765542984009 TimeSolve 7228.035062074661 TimeRead 0.02428603172302246 TimeTrans 375.7061948776245
